language ESSENCE' 1.0

letting fixed be 
[
    [0,2,4,0,5,3,6,0,0],
    [0,0,5,0,4,0,0,0,2],
    [9,0,0,6,0,2,0,0,5],
    [7,0,0,5,0,1,0,3,0],
    [0,0,0,3,6,7,5,0,0],
    [3,5,0,0,0,4,0,0,1],
    [2,0,0,0,3,5,0,0,9],
    [5,0,0,0,1,0,0,0,3],
    [0,0,3,2,0,0,8,5,0]
]